practice_problem/facility/facility.mps
NAME Facility
ROWS
 N  OBJ
 L  c0      
 L  c1      
 L  c2      
 L  c3      
 G  c4      
 G  c5      
 G  c6      
COLUMNS
    MARKER    'MARKER'                 'INTORG'
    B0(0)     OBJ       0
    MARKER    'MARKER'                 'INTEND'
    C1(0)     OBJ       0
    C2(0)     OBJ       0
    C3(0)     OBJ       0
    MARKER    'MARKER'                 'INTORG'
    B4(0)     OBJ       0
    MARKER    'MARKER'                 'INTEND'
    C5(0)     OBJ       0
    C6(0)     OBJ       0
    C7(0)     OBJ       0
    MARKER    'MARKER'                 'INTORG'
    B8(0)     OBJ       0
    MARKER    'MARKER'                 'INTEND'
    C9(0)     OBJ       0
    C10(0)    OBJ       0
    C11(0)    OBJ       0
    MARKER    'MARKER'                 'INTORG'
    B12(0)    OBJ       0
    MARKER    'MARKER'                 'INTEND'
    C13(0)    OBJ       0
    C14(0)    OBJ       0
    C15(0)    OBJ       0
    MARKER    'MARKER'                 'INTORG'
    B16(1)    OBJ       23
    B16(1)    c0        -28
    MARKER    'MARKER'                 'INTEND'
    C17(2)    OBJ       10
    C17(2)    c0        1
    C17(2)    c4        1
    C18(2)    OBJ       24
    C18(2)    c0        1
    C18(2)    c5        1
    C19(2)    OBJ       36
    C19(2)    c0        1
    C19(2)    c6        1
    MARKER    'MARKER'                 'INTORG'
    B20(1)    OBJ       12
    B20(1)    c1        -20
    MARKER    'MARKER'                 'INTEND'
    C21(2)    OBJ       20
    C21(2)    c1        1
    C21(2)    c4        1
    C22(2)    OBJ       16
    C22(2)    c1        1
    C22(2)    c5        1
    C23(2)    OBJ       14
    C23(2)    c1        1
    C23(2)    c6        1
    MARKER    'MARKER'                 'INTORG'
    B24(1)    OBJ       18
    B24(1)    c2        -24
    MARKER    'MARKER'                 'INTEND'
    C25(2)    OBJ       30
    C25(2)    c2        1
    C25(2)    c4        1
    C26(2)    OBJ       22
    C26(2)    c2        1
    C26(2)    c5        1
    C27(2)    OBJ       12
    C27(2)    c2        1
    C27(2)    c6        1
    MARKER    'MARKER'                 'INTORG'
    B28(1)    OBJ       32
    B28(1)    c3        -24
    MARKER    'MARKER'                 'INTEND'
    C29(2)    OBJ       40
    C29(2)    c3        1
    C29(2)    c4        1
    C30(2)    OBJ       30
    C30(2)    c3        1
    C30(2)    c5        1
    C31(2)    OBJ       8
    C31(2)    c3        1
    C31(2)    c6        1
RHS
    RHS1      c4        22
    RHS1      c5        14
    RHS1      c6        26
BOUNDS
 BV BND1      B0(0)   
 BV BND1      B4(0)   
 BV BND1      B8(0)   
 BV BND1      B12(0)  
 BV BND1      B16(1)  
 BV BND1      B20(1)  
 BV BND1      B24(1)  
 BV BND1      B28(1)  
ENDATA
